
Log started (V12.10.0.0) Fri Apr  2 17:16:45 2021

Warning, line 986: Name 's149' does not exist.

Problem 'asset.lp' read.
Read time = 0.00 sec. (0.06 ticks)
New value for default parallel thread count: 1
New value for time limit in seconds: 300
Version identifier: 12.10.0.0 | 2019-11-26 | 843d4de
CPXPARAM_Threads                                 1
CPXPARAM_TimeLimit                               300
Found incumbent of value -0.903407 after 0.00 sec. (0.03 ticks)
Tried aggregator 4 times.
MIP Presolve eliminated 287 rows and 216 columns.
MIP Presolve modified 595 coefficients.
Aggregator did 182 substitutions.
Reduced MIP has 199 rows, 203 columns, and 723 nonzeros.
Reduced MIP has 168 binaries, 20 generals, 0 SOSs, and 0 indicators.
Presolve time = 0.01 sec. (2.32 ticks)
Probing fixed 32 vars, tightened 6 bounds.
Probing time = 0.00 sec. (0.30 ticks)
Cover probing fixed 0 vars, tightened 27 bounds.
Tried aggregator 1 time.
MIP Presolve eliminated 68 rows and 68 columns.
Reduced MIP has 131 rows, 132 columns, and 397 nonzeros.
Reduced MIP has 109 binaries, 8 generals, 0 SOSs, and 0 indicators.
Presolve time = 0.00 sec. (0.41 ticks)
Probing time = 0.00 sec. (0.11 ticks)
Tried aggregator 1 time.
Detecting symmetries...
Reduced MIP has 131 rows, 132 columns, and 397 nonzeros.
Reduced MIP has 109 binaries, 8 generals, 0 SOSs, and 0 indicators.
Presolve time = 0.00 sec. (0.28 ticks)
Probing time = 0.00 sec. (0.11 ticks)
Clique table members: 58.
MIP emphasis: balance optimality and feasibility.
MIP search method: dynamic search.
Parallel mode: none, using 1 thread.
Root relaxation solution time = 0.00 sec. (0.59 ticks)

        Nodes                                         Cuts/
   Node  Left     Objective  IInf  Best Integer    Best Bound    ItCnt     Gap

*     0+    0                           -0.9034      224.5890              --- 
      0     0      138.9482    32       -0.9034      138.9482       73     --- 
*     0+    0                          138.9384      138.9482             0.01%

Root node processing (before b&c):
  Real time             =    0.01 sec. (4.93 ticks)
Sequential b&c:
  Real time             =    0.00 sec. (0.00 ticks)
                          ------------
Total (root+branch&cut) =    0.01 sec. (4.93 ticks)

Solution pool: 2 solutions saved.

MIP - Integer optimal, tolerance (0.0001/1e-06):  Objective =  1.3893843266e+02
Current MIP best bound =  1.3894821650e+02 (gap = 0.00978384, 0.01%)
Solution time =    0.01 sec.  Iterations = 73  Nodes = 0 (1)
Deterministic time = 4.93 ticks  (364.39 ticks/sec)


Incumbent solution
Variable Name           Solution Value
F                           155.000000
f1                            0.931567
f2                           15.130000
y60                           1.000000
y98                           1.000000
y115                          1.000000
y129                          1.000000
y132                          1.000000
y204                          1.000000
y103                          1.000000
y150                          1.000000
y251                          1.000000
y108                          1.000000
s1                            6.000000
s16                           6.000000
s38                           6.000000
s40                           6.000000
s45                           6.000000
s60                           6.832101
s74                           6.000000
s93                           6.000000
s98                           6.421376
s100                          6.000000
s101                          6.000000
s105                          6.000000
s114                          6.000000
s115                          6.790592
s129                          6.793234
s130                          6.000000
s132                          6.811140
s154                          6.000000
s156                          6.000000
s157                          6.000000
s173                          6.000000
s174                          6.000000
s176                          6.000000
s177                          6.000000
s179                          6.000000
s185                          6.000000
s204                          6.785558
s205                          6.000000
s207                          6.000000
s217                          6.000000
s236                          6.000000
s242                          6.000000
s243                          6.000000
s250                          6.000000
s259                          6.000000
s262                          6.000000
s85                           6.050000
s219                          6.210000
s103                          7.142245
s150                          7.061509
s251                          7.534386
s108                          7.464777
x126x60x1                     1.000000
x41x98x1                      2.000000
x9x132x1                      1.000000
x222x103x1                    1.000000
x222x150x1                    1.000000
x97x129x1                     1.000000
x10x103x1                     1.000000
x184x115x2                    1.000000
x184x129x2                    1.000000
x126x150x2                    1.000000
x97x132x2                     1.000000
x10x251x2                     1.000000
x221x251x2                    1.000000
x161x115x2                    1.000000
x9x204x3                      1.000000
x193x60x3                     1.000000
x193x204x3                    1.000000
x256x108x3                    1.000000
x221x108x3                    1.000000
x60x0x1                       1.000000
x60x0x3                       1.000000
x98x0x1                       2.000000
x115x0x2                      2.000000
x129x0x1                      1.000000
x129x0x2                      1.000000
x132x0x1                      1.000000
x132x0x2                      1.000000
x204x0x3                      2.000000
x103x0x1                      2.000000
x150x0x1                      1.000000
x150x0x2                      1.000000
x251x0x2                      2.000000
x108x0x3                      2.000000
s184                          5.338703
z184z115z2                    1.000000
z184z129z2                    1.000000
s126                          5.504358
z126z60z1                     1.000000
z126z150z2                    1.000000
s41                           4.924811
z41z98z1                      1.000000
s9                            5.203950
z9z132z1                      1.000000
z9z204z3                      1.000000
s193                          5.231480
z193z60z3                     1.000000
z193z204z3                    1.000000
s222                          5.528921
z222z103z1                    1.000000
z222z150z1                    1.000000
s97                           5.472278
z97z129z1                     1.000000
z97z132z2                     1.000000
s10                           5.840494
z10z103z1                     1.000000
z10z251z2                     1.000000
s256                          5.870000
z256z108z3                    1.000000
s221                          5.910000
z221z251z2                    1.000000
z221z108z3                    1.000000
s161                          4.477200
z161z115z2                    1.000000
z161z251z2                    1.000000
All other variables in the range 1-609 are 0.
